\ENCODING=ISO-8859-1
\Problem name: IloCplex

Minimize
 obj: x(0) + x(1) + x(2) + x(3) + x(4) + x(5) + x(6)
Subject To
 #1_constraint_fmin: x(0) + x(1) + x(2) + x(3) + x(4) + x(5) + x(6) >= 1
Bounds
 0 <= x(0) <= 1
 0 <= x(1) <= 1
 0 <= x(2) <= 1
 0 <= x(3) <= 1
 0 <= x(4) <= 1
 0 <= x(5) <= 1
 0 <= x(6) <= 1
Binaries
 x(0)  x(1)  x(2)  x(3)  x(4)  x(5)  x(6) 
End
